0	2.0	60.0
1	2.0	48.0
2	4.0	18.0
3	5.0	30.0
4	5.0	5.0
5	6.0	38.0
6	6.0	68.0
7	8.0	56.0
8	10.0	43.0
9	10.0	20.0
10	11.0	14.0
11	11.0	31.0
12	12.0	24.0
13	13.0	52.0
14	14.0	37.0
15	15.0	30.0
16	15.0	10.0
17	15.0	60.0
18	15.0	77.0
19	15.0	47.0
20	15.0	19.0
21	16.0	22.0
22	17.0	34.0
23	18.0	24.0
24	18.0	18.0
25	19.0	21.0
26	20.0	50.0
27	20.0	65.0
28	20.0	40.0
29	20.0	20.0
30	20.0	26.0
31	21.0	24.0
32	22.0	22.0
33	22.0	27.0
34	23.0	3.0
35	24.0	12.0
36	24.0	58.0
37	25.0	30.0
38	25.0	24.0
39	25.0	21.0
40	26.0	52.0
41	26.0	35.0
42	26.0	27.0
43	27.0	43.0
44	27.0	69.0
45	28.0	18.0
46	30.0	60.0
47	30.0	25.0
48	30.0	5.0
49	31.0	52.0
50	31.0	67.0
51	32.0	12.0
52	35.0	17.0
53	35.0	40.0
54	35.0	69.0
55	35.0	35.0
56	36.0	26.0
57	37.0	31.0
58	37.0	47.0
59	37.0	56.0
60	40.0	60.0
61	40.0	25.0
62	41.0	49.0
63	41.0	37.0
64	42.0	7.0
65	44.0	17.0
66	45.0	65.0
67	45.0	20.0
68	45.0	10.0
69	45.0	30.0
70	46.0	13.0
71	47.0	47.0
72	47.0	16.0
73	49.0	58.0
74	49.0	73.0
75	49.0	11.0
76	49.0	42.0
77	50.0	35.0
78	53.0	52.0
79	53.0	12.0
80	53.0	43.0
81	55.0	45.0
82	55.0	20.0
83	55.0	60.0
84	55.0	5.0
85	55.0	54.0
86	56.0	39.0
87	56.0	37.0
88	57.0	29.0
89	57.0	68.0
90	57.0	48.0
91	60.0	12.0
92	61.0	52.0
93	62.0	77.0
94	63.0	65.0
95	63.0	23.0
96	64.0	42.0
97	65.0	35.0
98	65.0	20.0
99	65.0	55.0
100	67.0	5.0
